100 500 10 200 10 100
96 92
91 25
22 116
93 28
34 162
86 198
53 128
81 91
95 111
44 40
38 122
75 159
72 121
41 81
34 141
98 40
49 185
18 189
13 164
52 174
98 44
57 176
28 138
65 121
10 142
62 135
24 168
71 77
31 147
55 148
25 159
54 154
57 54
78 86
80 171
67 199
74 30
81 19
13 84
69 72
61 125
59 100
20 90
24 24
85 158
66 158
75 184
27 102
35 75
62 111
41 37
45 94
42 105
61 59
78 55
13 47
66 140
13 105
45 126
34 79
49 126
82 21
63 182
63 181
20 113
56 135
97 22
19 41
70 144
92 139
15 55
76 11
19 135
11 36
22 69
73 155
42 176
93 116
16 145
46 56
86 31
31 41
46 200
75 195
64 197
16 175
23 153
40 58
41 103
40 159
47 33
69 169
20 145
91 199
32 46
97 159
45 56
90 123
58 84
13 19
